							
[NpcPos]	Flags	Index	PosX	PosY	Type	IsRangeCheck	
0	0	1	91	236	3	1	
1	0	2	80	211	2	1	
2	0	3	67	226	5	1	
3	0	4	78	240	1	1	
4	0	5	96	214	1	1	
5	0	6	97	207	4	1	
6	0	7	141	207	1	1	
7	0	8	99	230	7	0	
8	0	9	77	202	7	0	
9	0	10	72	200	7	0	
10	0	11	100	222	7	0	
11	1	15	69	251	6	1	
12	1	16	128	108	6	1	
13	1	17	242	242	6	1	
14	1	18	248	24	6	1	
15	1	19	161	90	6	1	
16	1	20	161	238	6	1	
17	1	21	42	188	6	1	
18	1	22	93	164	6	1	
19	1	23	156	123	6	1	
20	0	24	94	239	6	1	
21	1	25	42	20	6	1	
22	1	26	16	16	6	1	
23	0	30	31	38	7	0	
24	0	31	223	205	7	0	
25	0	32	43	157	6	1	
26	0	33	60	84	6	1	
27	0	34	155	91	7	0	
28	0	35	163	241	7	0	
29	0	36	22	160	7	0	
30	0	37	99	114	7	0	
31	0	38	186	81	7	0	
32	0	39	137	214	7	0	
33	0	40	34	227	7	0	
34	0	41	151	196	7	0	
35	0	42	133	158	7	0	
36	0	43	132	149	7	0	
37	0	44	41	103	7	0	
38	0	45	45	80	7	0	
39	0	46	77	39	6	0	
40	0	50	0	0	1	0	
41	0	51	0	0	1	0	
42	0	71	86	215	6	0	
43	0	72	86	215	6	0	
44	0	73	86	215	6	0	
45	0	74	86	215	6	0	
46	0	75	86	215	6	0	
47	0	76	86	215	6	0	
48	0	77	86	215	6	0	
49	2	78	96	203	1	0	
50	0	79	77	229	1	1	
51	0	89	72	234	1	0	
52	0	90	84	240	1	0	
53	0	80	77	230	1	0	
53	0	81	77	231	1	0	
55	0	82	77	232	1	0	
56	0	161	0	0	1	0	
57	0	162	0	0	1	0	
58	0	163	0	0	1	0	
59	0	164	0	0	1	0	
60	0	165	0	0	1	0	
61	0	166	0	0	1	0	
62	0	83	84	24	1	1
68	0	123	78	230	1	0
68	0	124	78	228	1	0
68	0	125	78	226	1	0
68	0	126	78	224	1	0
68	0	127	90	223	1	0
68	0	128	88	223	1	0
68	0	129	86	223	1	0
68	0	130	84	223	1	0
68	0	131	82	223	1	0
68	0	132	76	234	1	0
68	0	133	74	234	1	0
68	0	134	72	234	1	0
68	0	135	70	234	1	0
68	0	136	68	234	1	0


							
[WarpLst]	NpcsIdx	NSetIdx	TargetIdx	LV	Fee	Type	
0	15	0	45	1	0	0	
1	16	0	150	1	0	2	
2	16	1	51	0	0	1	
3	16	2	88	0	0	1	
4	16	3	90	0	0	1	
5	16	4	133	0	0	1	
6	16	5	177	1	0	2	
7	16	6	4100	100	0	2	
8	16	7	4101	100	0	2	
9	16	8	4102	100	0	2	
10	16	9	4117	100	0	2	
11	16	10	4278	100	0	2	
12	17	0	4144	0	0	1	
13	18	0	50	95	0	0	
14	18	1	169	1	0	2	
15	18	2	112	0	0	1	
16	18	3	115	0	0	1	
17	18	4	178	1	0	2	
18	20	0	93	0	0	1	
19	20	1	4164	0	0	1	
20	21	0	4133	0	0	1	
21	21	1	4243	0	0	1	
22	22	0	39	0	0	1	
23	23	0	58	0	0	1	
24	23	1	61	0	0	1	
25	23	2	76	0	0	1	
26	23	3	211	0	0	1	
27	23	4	256	0	0	1	
28	23	5	257	0	0	1	
29	23	6	259	0	0	1	
30	23	7	4192	0	0	1	
31	24	0	71	0	0	1	
32	24	1	124	0	0	1	
33	24	2	125	0	0	1	
34	24	3	4286	100	0	1	
35	24	4	4298	100	0	1	
36	24	5	4315	100	0	1	
37	24	6	4317	100	0	1	
38	24	7	4165	0	0	1	
39	24	8	4166	0	0	1	
40	32	0	40	0	0	1	
41	32	1	91	0	0	1	
42	32	2	141	0	0	1	
43	32	3	198	0	0	1	
44	33	0	48	0	0	1	
45	33	1	49	0	0	1	
46	33	2	50	0	0	1	
47	33	3	62	0	0	1	
48	33	4	67	0	0	1	
49	33	5	92	0	0	1	
50	33	6	113	0	0	1	
51	33	7	200	0	0	1	
52	33	8	4172	0	0	1	
53	33	9	4173	0	0	1	
54	33	10	4174	0	0	1	
55	33	11	4175	0	0	1	
56	33	12	4176	0	0	1	
57	33	13	4177	0	0	1	
58	33	14	4178	0	0	1	
59	33	15	4179	0	0	1	
60	33	16	4180	0	0	1	
61	33	17	4181	0	0	1	
62	33	18	4182	0	0	1	
63	33	19	4183	0	0	1	
64	33	20	4184	0	0	1	
65	71	0	4228	0	0	1	
66	72	0	4229	0	0	1	
67	73	0	4230	0	0	1	
68	74	0	4231	0	0	1	
69	75	0	4232	0	0	1	
70	76	0	4233	0	0	1	
71	77	0	4234	0	0	1	
72	16	11	4353	100	0	2	
							
[SkillLst]	NSetIdx	NpcsIdx	SkillIdx	SkillLv	SkillBook		
